n_res = 5;
n_events = 22;
n_prec = 59;
source = 1;
sink = 22;
min_lvl = [-4, -5, -6, 1, -1];
max_lvl = [1, -1, -1, 4, 5];
rr = [| 0, -1, -1, 2, 0, -1, 0, -1, -2, 2, 0, 1, -2, 0, 0, -1, 0, 2, 1, 0, 1, 0
      | 0, -1, 1, 0, 0, -1, -2, -1, 1, -2, 0, -2, 2, -1, -2, 0, 2, 2, 2, 0, -2, 0
      | 0, 0, 0, 0, 0, 0, -2, -1, 1, 0, 0, -2, 0, 0, 0, -1, -1, -1, 0, 1, 0, 0
      | 0, -1, 2, 0, 0, 0, 0, 1, 2, 1, 0, 0, 0, 0, 0, 0, -1, 0, 1, -2, 0, 0
      | 0, 0, 1, 0, 2, -1, 2, -2, -1, 2, -2, 1, -1, 1, 0, 1, -1, -2, 0, 0, 0, 0 |];
prec = [| 1, 0, 5
        | 1, 0, 4
        | 1, 0, 2
        | 1, 0, 3
        | 1, 0, 6
        | 2, -4, 10
        | 2, -5, 9
        | 3, 12, 21
        | 4, 2, 21
        | 4, 0, 17
        | 4, 2, 10
        | 4, 1, 18
        | 5, 0, 18
        | 5, 0, 15
        | 6, 13, 16
        | 6, 18, 19
        | 7, 8, 8
        | 7, -28, 6
        | 8, 5, 11
        | 8, 8, 18
        | 9, -25, 13
        | 9, 18, 21
        | 9, 13, 17
        | 10, -23, 14
        | 10, -3, 17
        | 10, 30, 21
        | 11, 1, 13
        | 11, 0, 20
        | 11, 0, 10
        | 12, 15, 14
        | 12, -33, 11
        | 12, -21, 8
        | 12, -25, 19
        | 12, -30, 20
        | 13, 3, 10
        | 13, 0, 9
        | 14, 2, 9
        | 14, -3, 10
        | 15, 18, 16
        | 15, -3, 19
        | 15, -2, 5
        | 16, 11, 12
        | 16, -2, 13
        | 16, 11, 7
        | 16, -24, 6
        | 17, 15, 21
        | 17, -26, 13
        | 17, -23, 14
        | 17, -12, 10
        | 18, -2, 4
        | 18, 3, 17
        | 18, 3, 9
        | 19, 10, 12
        | 19, 22, 13
        | 19, 0, 18
        | 20, -25, 8
        | 20, 10, 12
        | 20, 27, 13
        | 21, 8, 22 |];
